c ---- [ banner ] ------------------------------------------------------------
c
c Kissat SAT Solver
c 
c Copyright (c) 2021-2024 Armin Biere University of Freiburg
c Copyright (c) 2019-2021 Armin Biere Johannes Kepler University Linz
c 
c Version 4.0.1 43f02cf3e992cb44653b35e5cb26f93281552ae0
c gcc (Ubuntu 13.2.0-23ubuntu4) 13.2.0 -W -Wall -O3 -DNDEBUG
c Thu Sep 12 12:27:46 CEST 2024 Linux abryzen9 6.8.0-41-generic x86_64
c
c ---- [ parsing ] -----------------------------------------------------------
c
c opened and reading DIMACS file:
c
c   /data/artifact/AMulet2.0_artifact/exp4/cnf_resyn3_64/64_64_U2_4to2_BK_Multgen_resyn3.cnf
c
c parsed 'p cnf 21121 82942' header
c closing input after reading 1622071 bytes (2 MB)
c finished parsing after 0.01 seconds
c
c ---- [ options ] -----------------------------------------------------------
c
c --stable=0                       (different from default '1')
c
c ---- [ solving ] -----------------------------------------------------------
c
c  seconds switched rate     size/glue tier1  binary         remaining
c         MB reductions conflicts size  tier2    irredundant
c          level restarts redundant glue  trail         variables
c
c *  0.01  8 0 0 0  0 0   0   0 0.0 0 0 0 0 0% 4165 78775 21118 100%
c (  0.02  9 0 0 0  0 0   0   0 0.0 0 0 0 0 0% 4165 78775 21118 100%
c .  0.02  9 0 0 0  0 0   0   0 0.0 0 0 0 0 0% 4161 78775 21118 100%
c c  0.06 17 0 0 0  0 0   0   0 0.0 0 0 0 0 0% 4415 78464 20950 99%
c d  0.06 17 0 0 0  0 0   0   0 0.0 0 0 0 0 0% 4027 78464 20950 99%
c =  0.09 17 0 0 0  0 0   0   0 0.0 0 0 0 0 0% 3966 78464 20946 99%
c d  0.10 17 0 0 0  0 0   0   0 0.0 0 0 0 0 0% 3975 78445 20946 99%
c d  0.10 17 0 0 0  0 0   0   0 0.0 0 0 0 0 0% 3968 78445 20943 99%
c f  0.13 16 0 0 0  0 0   0   0 0.0 0 0 0 0 0% 3958 78437 20948 99%
c e  0.23 17 0 0 0  0 0   0   0 0.0 0 0 0 0 0% 3094 79044 16103 76%
c )  0.23 17 0 0 0  0 0   0   0 0.0 0 0 0 0 0% 3094 79044 16103 76%
c {  0.24 17 0 0 0  0 0   0   0 0.0 0 0 2 6 0% 3094 79044 16103 76%
c i  0.24 17 172 0 0 50 21 157 121 1.7 5 3 2 4 3% 3115 79043 16102 76%
c i  0.24 17 148 0 0 78 25 194 152 1.7 5 3 2 4 3% 3119 79043 16101 76%
c i  0.26 17 155 0 0 178 17 686 561 1.7 6 4 3 8 9% 3167 79043 16100 76%
c -  0.29 17 175 0 1 225 19 1001 778 1.7 7 4 3 7 14% 3178 79022 16100 76%
c -  0.40 17 131 0 2 559 26 2001 1564 1.9 9 5 3 8 14% 3180 79022 16100 76%
c c  0.48 17 134 0 2 672 27 2505 2034 1.9 9 5 3 8 14% 3216 79014 16093 76%
c d  0.48 17 134 0 2 672 27 2505 2034 1.9 9 5 3 8 14% 3202 79014 16093 76%
c b  0.48 17 134 0 2 672 27 2505 2034 1.9 9 5 3 8 14% 3202 79014 16091 76%
c
c  seconds   switched   rate       size/glue tier1   binary         remaining
c         MB  reductions conflicts      size  tier2     irredundant
c           level restarts    redundant   glue   trail         variables
c
c u  0.49 17 134 0 2 672 27 2505 1604 1.9 9 5 3 8 14% 3201 79014 16091 76%
c v  0.50 17 134 0 2 672 27 2505 1428 1.9 9 5 3 8 14% 3201 79014 16091 76%
c w  0.50 17 134 0 2 672 27 2505 1427 1.9 9 5 3 8 14% 3201 79014 16091 76%
c x  0.51 17 134 0 2 672 27 2505 1426 1.9 9 5 3 8 14% 3299 78789 16091 76%
c d  0.54 17 134 0 2 672 27 2505 1426 1.9 9 5 3 8 14% 3292 78788 16088 76%
c t  0.54 17 134 0 2 672 27 2505 1426 1.9 9 5 3 8 14% 3196 78788 16088 76%
c f  0.55 17 134 0 2 672 27 2505 1426 1.9 9 5 3 8 14% 3371 78524 16176 77%
c u  0.57 17 134 0 2 672 27 2505 1380 1.9 9 5 3 8 14% 3372 78524 16176 77%
c v  0.57 17 134 0 2 672 27 2505 1279 1.9 9 5 3 8 14% 3372 78524 16176 77%
c w  0.58 17 134 0 2 672 27 2505 1270 1.9 9 5 3 8 14% 3372 78524 16176 77%
c x  0.59 17 134 0 2 672 27 2505 1270 1.9 9 5 3 8 14% 3424 78375 16174 77%
c d  0.59 17 134 0 2 672 27 2505 1270 1.9 9 5 3 8 14% 3426 78368 16173 77%
c t  0.60 17 134 0 2 672 27 2505 1270 1.9 9 5 3 8 14% 3384 78368 16173 77%
c f  0.61 17 134 0 2 672 27 2505 1270 1.9 9 5 3 8 14% 3407 78321 16185 77%
c i  0.61 17 134 0 2 672 27 2505 1270 1.9 9 5 3 8 14% 3407 78321 16185 77%
c -  0.65 17 141 0 3 725 25 3416 1844 1.9 9 5 3 8 16% 3424 78320 16185 77%
c -  0.80 17 146 0 4 1019 25 5148 3046 1.9 10 5 3 9 18% 3436 78320 16185 77%
c -  0.93 17 144 0 5 1156 23 7149 4187 1.9 10 5 3 8 18% 3469 78320 16185 77%
c c  1.02 17 144 0 5 1217 23 7714 4720 1.9 10 5 3 8 18% 3529 78215 16156 76%
c d  1.02 17 144 0 5 1217 23 7714 4701 1.9 10 5 3 8 18% 3471 78215 16156 76%
c
c  seconds   switched    rate       size/glue tier1    binary         remaining
c         MB  reductions  conflicts       size  tier2     irredundant
c           level  restarts    redundant    glue   trail         variables
c
c u  1.04 17 144 0 5 1217 23 7714 4030 1.9 10 5 3 8 18% 3469 78215 16156 76%
c v  1.05 17 144 0 5 1217 23 7714 3829 1.9 10 5 3 8 18% 3469 78215 16156 76%
c w  1.05 17 144 0 5 1217 23 7714 3823 1.9 10 5 3 8 18% 3469 78215 16156 76%
c x  1.06 17 144 0 5 1217 23 7714 3823 1.9 10 5 3 8 18% 3470 78213 16156 76%
c =  1.11 17 144 0 5 1217 23 7714 3823 1.9 10 5 3 8 18% 3480 78213 16151 76%
c d  1.11 17 144 0 5 1217 23 7714 3823 1.9 10 5 3 8 18% 3465 78213 16149 76%
c t  1.12 17 144 0 5 1217 23 7714 3823 1.9 10 5 3 8 18% 3454 78213 16149 76%
c f  1.13 17 144 0 5 1217 23 7714 3823 1.9 10 5 3 8 18% 3551 78062 16198 77%
c u  1.19 17 144 0 5 1217 23 7714 3452 1.9 10 5 3 8 18% 3553 78062 16198 77%
c v  1.21 17 144 0 5 1217 23 7714 3176 1.9 10 5 3 8 18% 3554 78062 16198 77%
c w  1.21 17 144 0 5 1217 23 7714 3166 1.9 10 5 3 8 18% 3554 78062 16198 77%
c =  1.26 17 144 0 5 1217 23 7714 3166 1.9 10 5 3 8 18% 3586 78062 16182 77%
c d  1.26 17 144 0 5 1217 23 7714 3124 1.9 10 5 3 8 18% 3550 78062 16182 77%
c t  1.27 17 144 0 5 1217 23 7714 3124 1.9 10 5 3 8 18% 3541 78062 16182 77%
c f  1.28 17 144 0 5 1217 23 7714 3124 1.9 10 5 3 8 18% 3548 78051 16186 77%
c -  1.41 17 140 0 6 1381 22 9387 4074 1.9 10 5 3 8 19% 3558 78051 16186 77%
c o  1.47 17 139 0 6 1449 22 10006 4646 1.9 10 5 3 8 19% 3561 78051 16186 77%
c -  1.62 17 140 0 7 1618 22 11836 5595 1.9 10 5 3 8 20% 3567 78051 16186 77%
c s  1.73 17 139 0 7 1709 22 12516 6248 2.0 10 5 3 8 20% 3573 77904 16186 77%
c e  1.79 17 139 0 7 1709 22 12516 6248 2.0 10 5 3 8 20% 2794 78464 14699 70%
c
c  seconds   switched    rate        size/glue tier1    binary         remaining
c         MB  reductions   conflicts       size  tier2     irredundant
c           level  restarts     redundant    glue   trail         variables
c
c s  1.80 17 139 0 7 1709 22 12516 6248 2.0 10 5 3 8 20% 2805 78305 14699 70%
c e  1.81 17 139 0 7 1709 22 12516 6248 2.0 10 5 3 8 20% 2798 78312 14691 70%
c ^  1.81 17 139 0 7 1709 22 12516 6248 2.0 10 5 3 8 20% 2798 78312 14691 70%
c -  2.03 23 138 0 8 1898 21 14481 5921 1.9 10 5 3 8 21% 2803 78312 14691 70%
c d  2.17 23 136 0 8 2056 21 15802 7160 1.9 10 5 3 8 22% 2805 78312 14690 70%
c u  2.19 23 136 0 8 2056 21 15802 6059 1.9 10 5 3 8 22% 2807 78312 14690 70%
c v  2.21 23 136 0 8 2056 21 15802 5753 1.9 10 5 3 8 22% 2807 78312 14690 70%
c w  2.22 23 136 0 8 2056 21 15802 5740 1.9 10 5 3 8 22% 2807 78312 14690 70%
c x  2.23 23 136 0 8 2056 21 15802 5740 1.9 10 5 3 8 22% 2823 78282 14690 70%
c t  2.32 23 136 0 8 2056 21 15802 5740 1.9 10 5 3 8 22% 2806 78282 14690 70%
c f  2.36 23 136 0 8 2056 21 15802 5740 1.9 10 5 3 8 22% 2841 78190 14714 70%
c c  2.43 17 136 0 8 2056 21 15802 5738 1.9 10 5 3 8 22% 2869 78106 14700 70%
c d  2.43 17 136 0 8 2056 21 15802 5738 1.9 10 5 3 8 22% 2841 78106 14700 70%
c u  2.46 17 136 0 8 2056 21 15802 5378 1.9 10 5 3 8 22% 2843 78106 14700 70%
c v  2.50 17 136 0 8 2056 21 15802 5017 1.9 10 5 3 8 22% 2843 78106 14700 70%
c w  2.52 17 136 0 8 2056 21 15802 4993 1.9 10 5 3 8 22% 2843 78106 14700 70%
c -  2.84 17 135 0 9 2222 21 17311 5537 1.9 10 5 3 8 22% 2850 78105 14700 70%
c o  3.26 19 132 0 9 2482 20 20043 8078 1.9 10 5 3 8 23% 2869 78105 14700 70%
c -  3.30 19 131 0 10 2512 20 20312 7283 1.9 10 5 3 8 23% 2870 78105 14700 70%
c -  3.81 19 130 0 11 2863 20 23474 8942 1.9 10 5 3 8 23% 2890 78105 14700 70%
c
c  seconds   switched     rate         size/glue tier1    binary         remaining
c         MB   reductions   conflicts        size  tier2     irredundant
c           level   restarts      redundant    glue   trail         variables
c
c s  4.00 19 128 0 11 3004 20 25034 10386 1.9 10 5 3 8 23% 2898 78089 14700 70%
c e  4.07 19 128 0 11 3004 20 25034 10386 1.9 10 5 3 8 23% 2482 78723 14266 68%
c s  4.07 19 128 0 11 3004 20 25034 10386 1.9 10 5 3 8 23% 2511 78592 14266 68%
c e  4.08 19 128 0 11 3004 20 25034 10386 1.9 10 5 3 8 23% 2510 78594 14265 68%
c ^  4.08 19 128 0 11 3004 20 25034 10386 1.9 10 5 3 8 23% 2510 78594 14265 68%
c -  4.24 19 127 0 12 3170 20 26790 9698 1.9 10 5 3 8 23% 2514 78594 14265 68%
c u  4.28 19 126 0 12 3170 20 26944 7676 1.9 10 5 3 8 23% 2517 78594 14265 68%
c v  4.31 19 126 0 12 3170 20 26944 7090 1.9 10 5 3 8 23% 2517 78594 14265 68%
c w  4.31 19 126 0 12 3170 20 26944 7090 1.9 10 5 3 8 23% 2517 78594 14265 68%
c t  4.44 19 126 0 12 3170 20 26944 7090 1.9 10 5 3 8 23% 2482 78594 14265 68%
c f  4.46 19 126 0 12 3170 20 26944 7090 1.9 10 5 3 8 23% 2526 78478 14287 68%
c u  4.49 19 126 0 12 3170 20 26944 6827 1.9 10 5 3 8 23% 2528 78478 14287 68%
c v  4.52 19 126 0 12 3170 20 26944 6629 1.9 10 5 3 8 23% 2528 78478 14287 68%
c w  4.52 19 126 0 12 3170 20 26944 6628 1.9 10 5 3 8 23% 2528 78478 14287 68%
c x  4.55 19 126 0 12 3170 20 26944 6623 1.9 10 5 3 8 23% 2569 78375 14287 68%
c t  4.56 19 126 0 12 3170 20 26944 6623 1.9 10 5 3 8 23% 2535 78375 14287 68%
c -  4.88 19 124 0 13 3504 19 30256 8540 1.9 10 5 3 8 23% 2550 78375 14287 68%
c -  5.24 19 124 0 14 3885 19 33861 9864 1.9 10 6 2 8 24% 2565 78375 14287 68%
c -  5.54 19 123 0 15 4211 19 37602 11074 1.8 10 6 2 8 24% 2585 78373 14287 68%
c o  5.71 19 121 0 15 4383 19 40064 13299 1.8 10 6 2 8 24% 2608 78373 14287 68%
c
c  seconds   switched     rate         size/glue tier1    binary         remaining
c         MB   reductions   conflicts        size  tier2     irredundant
c           level   restarts      redundant    glue   trail         variables
c
c c  5.79 19 120 0 15 4466 18 41291 14415 1.8 10 6 2 8 23% 2652 78336 14275 68%
c d  5.80 19 120 0 15 4466 18 41291 14412 1.8 10 6 2 8 23% 2626 78336 14274 68%
c u  5.83 19 120 0 15 4466 18 41291 12625 1.8 10 6 2 8 23% 2627 78336 14274 68%
c v  5.88 19 120 0 15 4466 18 41291 11584 1.8 10 6 2 8 23% 2627 78336 14274 68%
c w  5.89 19 120 0 15 4466 18 41291 11570 1.8 10 6 2 8 23% 2627 78336 14274 68%
c d  5.90 19 120 0 15 4466 18 41291 11567 1.8 10 6 2 8 23% 2623 78336 14272 68%
c t  5.91 19 120 0 15 4466 18 41291 11567 1.8 10 6 2 8 23% 2615 78336 14272 68%
c f  5.91 19 120 0 15 4466 18 41291 11567 1.8 10 6 2 8 23% 2616 78328 14274 68%
c u  5.94 19 120 0 15 4466 18 41291 11363 1.8 10 6 2 8 23% 2618 78328 14274 68%
c v  5.99 19 120 0 15 4466 18 41291 10024 1.8 10 6 2 8 23% 2620 78328 14274 68%
c w  6.01 19 120 0 15 4466 18 41291 9974 1.8 10 6 2 8 23% 2620 78328 14274 68%
c t  6.16 19 120 0 15 4466 18 41291 9974 1.8 10 6 2 8 23% 2619 78328 14274 68%
c -  6.19 19 121 0 16 4474 18 41475 8517 1.8 10 6 2 8 24% 2619 78328 14274 68%
c -  6.52 19 122 0 17 4783 18 45475 10459 1.9 10 6 2 8 24% 2643 78327 14274 68%
c -  6.87 19 121 0 18 5116 18 49598 12333 1.8 10 6 2 8 24% 2663 78327 14274 68%
c s  6.96 19 118 0 18 5182 17 52174 14554 1.9 10 6 2 8 23% 2692 78281 14274 68%
c e  7.03 19 118 0 18 5182 17 52174 14554 1.9 10 6 2 8 23% 2333 79877 13532 64%
c 2  7.03 19 118 0 18 5182 17 52174 14554 1.9 10 6 2 8 23% 2332 79877 13532 64%
c s  7.04 19 118 0 18 5182 17 52174 14554 1.9 10 6 2 8 23% 2349 79465 13532 64%
c e  7.05 19 118 0 18 5182 17 52174 14554 1.9 10 6 2 8 23% 2313 79514 13514 64%
c
c  seconds   switched     rate         size/glue tier1    binary         remaining
c         MB   reductions   conflicts        size  tier2     irredundant
c           level   restarts      redundant    glue   trail         variables
c
c ^  7.05 19 118 0 18 5182 17 52174 14554 1.9 10 6 2 8 23% 2313 79514 13514 64%
c -  7.18 19 118 0 19 5280 17 53840 12227 1.9 10 6 2 8 23% 2318 79514 13514 64%
c -  7.63 19 118 0 20 5695 17 58200 13969 1.8 10 6 2 8 24% 2335 79513 13514 64%
c d  7.75 19 118 0 20 5788 17 58943 14668 1.8 10 6 2 8 24% 2321 79513 13507 64%
c u  7.82 19 118 0 20 5788 17 58943 12275 1.8 10 6 2 8 24% 2335 79513 13507 64%
c v  7.91 19 118 0 20 5788 17 58943 10275 1.8 10 6 2 8 24% 2336 79513 13507 64%
c w  7.93 19 118 0 20 5788 17 58943 10262 1.8 10 6 2 8 24% 2336 79513 13507 64%
c d  7.94 19 118 0 20 5788 17 58943 10262 1.8 10 6 2 8 24% 2334 79513 13506 64%
c t  7.96 19 118 0 20 5788 17 58943 10262 1.8 10 6 2 8 24% 2323 79513 13506 64%
c f  8.01 19 118 0 20 5788 17 58943 10262 1.8 10 6 2 8 24% 2334 79455 13514 64%
c -  8.61 19 117 0 21 6065 17 62673 11733 1.8 10 6 2 8 25% 2359 79453 13514 64%
c -  9.32 19 117 0 22 6481 17 67255 13900 1.8 10 6 2 8 25% 2374 79453 13514 64%
c o  9.63 19 117 0 22 6780 17 70108 16577 1.8 10 6 2 8 25% 2388 79452 13514 64%
c -  9.85 19 117 0 23 6957 17 71947 15673 1.8 10 6 2 8 25% 2394 79451 13514 64%
c - 10.37 19 116 0 24 7451 17 76743 17081 1.8 10 6 2 7 26% 2415 79448 13514 64%
c d 10.70 19 116 0 24 7800 17 80023 20045 1.8 10 6 2 7 26% 2414 79448 13501 64%
c u 10.76 19 116 0 24 7800 17 80023 17260 1.8 10 6 2 7 26% 2423 79448 13501 64%
c v 10.81 19 116 0 24 7800 17 80023 16297 1.8 10 6 2 7 26% 2424 79448 13501 64%
c w 10.83 19 116 0 24 7800 17 80023 16269 1.8 10 6 2 7 26% 2424 79448 13501 64%
c x 10.86 21 116 0 24 7800 17 80023 16269 1.8 10 6 2 7 26% 2425 79433 13501 64%
c
c  seconds   switched     rate         size/glue tier1    binary         remaining
c         MB   reductions   conflicts        size  tier2     irredundant
c           level   restarts      redundant    glue   trail         variables
c
c d 10.87 21 116 0 24 7800 17 80023 16268 1.8 10 6 2 7 26% 2423 79432 13500 64%
c t 10.88 21 116 0 24 7800 17 80023 16268 1.8 10 6 2 7 26% 2414 79432 13500 64%
c f 10.88 21 116 0 24 7800 17 80023 16268 1.8 10 6 2 7 26% 2418 79416 13502 64%
c c 10.92 21 116 0 24 7800 17 80023 16224 1.8 10 6 2 7 26% 2479 79225 13468 64%
c d 10.93 21 116 0 24 7800 17 80023 16224 1.8 10 6 2 7 26% 2411 79225 13468 64%
c u 10.97 21 116 0 24 7800 17 80023 15841 1.8 10 6 2 7 26% 2408 79225 13468 64%
c v 11.03 21 116 0 24 7800 17 80023 13709 1.8 10 6 2 7 26% 2410 79225 13468 64%
c w 11.06 21 116 0 24 7800 17 80023 13631 1.8 10 6 2 7 26% 2410 79225 13468 64%
c d 11.06 21 116 0 24 7800 17 80023 13629 1.8 10 6 2 7 26% 2408 79225 13467 64%
c t 11.07 21 116 0 24 7800 17 80023 13629 1.8 10 6 2 7 26% 2403 79225 13467 64%
c - 11.22 21 117 0 25 7962 17 81641 12944 1.8 10 6 2 7 26% 2408 79225 13467 64%
c - 11.71 21 117 0 26 8367 17 86641 15180 1.8 10 6 2 7 26% 2429 79225 13467 64%
c - 12.18 21 116 0 27 8724 17 91740 17279 1.8 10 6 2 7 26% 2454 79224 13467 64%
c s 12.73 21 116 0 27 9229 17 95884 21159 1.8 10 6 2 7 26% 2476 79160 13467 64%
c e 12.80 22 116 0 27 9229 17 95884 21159 1.8 10 6 2 7 26% 2032 81321 12860 61%
c s 12.81 22 116 0 27 9229 17 95884 21159 1.8 10 6 2 7 26% 2050 80589 12860 61%
c e 12.83 22 116 0 27 9229 17 95884 21159 1.8 10 6 2 7 26% 1995 80695 12841 61%
c ^ 12.83 22 116 0 27 9229 17 95884 21159 1.8 10 6 2 7 26% 1995 80695 12841 61%
c - 12.91 22 116 0 28 9269 17 96936 16686 1.8 10 6 2 7 26% 1998 80695 12841 61%
c - 13.51 22 116 0 29 9735 17 102228 18631 1.8 10 6 2 7 27% 2011 80695 12841 61%
c
c  seconds   switched     rate          size/glue tier1    binary         remaining
c         MB   reductions   conflicts         size  tier2     irredundant
c           level   restarts       redundant    glue   trail         variables
c
c d 13.83 22 116 0 29 9995 17 104658 20921 1.8 10 6 2 7 27% 2013 80695 12840 61%
c u 13.88 22 116 0 29 9995 17 104658 17853 1.8 10 6 2 7 27% 2022 80695 12840 61%
c v 13.95 22 116 0 29 9995 17 104658 14988 1.8 10 6 2 7 27% 2024 80695 12840 61%
c w 13.98 22 116 0 29 9995 17 104658 14953 1.8 10 6 2 7 27% 2024 80695 12840 61%
c = 14.28 22 116 0 29 9995 17 104658 14953 1.8 10 6 2 7 27% 2312 80670 12696 60%
c d 14.28 22 116 0 29 9995 17 104658 14872 1.8 10 6 2 7 27% 2004 80670 12696 60%
c t 14.29 22 116 0 29 9995 17 104658 14872 1.8 10 6 2 7 27% 1958 80670 12696 60%
c f 14.33 22 116 0 29 9995 17 104658 14872 1.8 10 6 2 7 27% 1961 80646 12698 60%
c c 14.37 22 116 0 29 9995 17 104658 14831 1.8 10 6 2 7 27% 2005 80538 12681 60%
c d 14.37 22 116 0 29 9995 17 104658 14831 1.8 10 6 2 7 27% 1971 80538 12681 60%
c u 14.42 22 116 0 29 9995 17 104658 14347 1.8 10 6 2 7 27% 1977 80538 12681 60%
c v 14.47 22 116 0 29 9995 17 104658 13789 1.8 10 6 2 7 27% 1977 80538 12681 60%
c w 14.49 22 116 0 29 9995 17 104658 13706 1.8 10 6 2 7 27% 1977 80538 12681 60%
c d 14.50 22 116 0 29 9995 17 104658 13706 1.8 10 6 2 7 27% 1975 80538 12680 60%
c t 14.51 22 116 0 29 9995 17 104658 13706 1.8 10 6 2 7 27% 1972 80538 12680 60%
c - 14.86 22 117 0 30 10200 17 107613 14366 1.8 10 6 2 7 27% 1978 80538 12680 60%
c o 15.11 22 117 0 30 10391 17 110112 16665 1.8 10 6 2 7 28% 1983 80538 12680 60%
c - 15.48 22 117 0 31 10620 17 113093 16937 1.8 10 6 2 7 28% 1987 80538 12680 60%
c - 16.12 22 117 0 32 11049 17 118660 19093 1.8 10 6 2 7 28% 2001 80537 12680 60%
c - 16.61 22 116 0 33 11409 17 124316 20688 1.8 10 6 2 7 28% 2020 80533 12680 60%
c
c  seconds   switched      rate          size/glue tier1    binary         remaining
c         MB   reductions    conflicts         size  tier2     irredundant
c           level   restarts        redundant    glue   trail         variables
c
c - 17.33 22 115 0 34 11926 17 130061 22197 1.8 10 6 2 7 28% 2032 80532 12680 60%
c c 17.63 22 115 0 34 12130 16 132919 24820 1.8 10 6 2 7 28% 2080 80442 12663 60%
c d 17.63 22 115 0 34 12130 16 132919 24797 1.8 10 6 2 7 28% 2046 80442 12663 60%
c u 17.70 22 115 0 34 12130 16 132919 21256 1.8 10 6 2 7 28% 2059 80442 12663 60%
c v 17.78 22 115 0 34 12130 16 132919 17830 1.8 10 6 2 7 28% 2061 80442 12663 60%
c w 17.82 22 115 0 34 12130 16 132919 17768 1.8 10 6 2 7 28% 2062 80442 12663 60%
c = 18.19 22 115 0 34 12130 16 132919 17768 1.8 10 6 2 7 28% 2618 80379 12385 59%
c d 18.19 22 115 0 34 12130 16 132919 17511 1.8 10 6 2 7 28% 2030 80379 12385 59%
c t 18.20 22 115 0 34 12130 16 132919 17511 1.8 10 6 2 7 28% 1927 80379 12385 59%
c f 18.22 22 115 0 34 12130 16 132919 17511 1.8 10 6 2 7 28% 1935 80295 12392 59%
c u 18.30 22 115 0 34 12130 16 132919 16900 1.8 10 6 2 7 28% 1939 80295 12392 59%
c v 18.36 22 115 0 34 12130 16 132919 16094 1.8 10 6 2 7 28% 1940 80295 12392 59%
c w 18.39 22 115 0 34 12130 16 132919 16026 1.8 10 6 2 7 28% 1940 80295 12392 59%
c x 18.45 22 115 0 34 12130 16 132919 16013 1.8 10 6 2 7 28% 2013 79555 12392 59%
c = 18.83 22 115 0 34 12130 16 132919 16013 1.8 10 6 2 7 28% 2217 79552 12290 58%
c d 18.83 22 115 0 34 12130 16 132919 15958 1.8 10 6 2 7 28% 2009 79552 12290 58%
c t 18.84 22 115 0 34 12130 16 132919 15958 1.8 10 6 2 7 28% 1903 79552 12290 58%
c f 18.86 22 115 0 34 12130 16 132919 15958 1.8 10 6 2 7 28% 1905 79540 12291 58%
c - 19.22 22 116 0 35 12353 17 135891 16324 1.8 10 6 2 7 28% 1907 79540 12291 58%
c - 19.98 22 116 0 36 12857 17 141807 19084 1.8 10 6 2 7 29% 1915 79540 12291 58%
c
c  seconds   switched      rate          size/glue tier1    binary         remaining
c         MB   reductions    conflicts         size  tier2     irredundant
c           level   restarts        redundant    glue   trail         variables
c
c - 20.65 22 116 0 37 13347 17 147808 21341 1.8 10 6 2 7 29% 1929 79540 12291 58%
c - 21.21 22 115 0 38 13827 16 153890 23064 1.8 10 6 2 7 29% 1947 79540 12291 58%
c s 21.63 22 115 0 38 14110 16 157984 26902 1.8 10 6 2 7 29% 1963 77151 12291 58%
c e 21.79 24 115 0 38 14110 16 157984 26902 1.8 10 6 2 7 29% 1428 95527 9617 46%
c s 21.84 24 115 0 38 14110 16 157984 26902 1.8 10 6 2 7 29% 1437 93878 9617 46%
c e 21.87 24 115 0 38 14110 16 157984 26902 1.8 10 6 2 7 29% 1415 93996 9600 45%
c ^ 21.87 24 115 0 38 14110 16 157984 26902 1.8 10 6 2 7 29% 1415 93996 9600 45%
c - 22.10 24 115 0 39 14315 16 160054 11424 1.8 10 6 2 7 29% 1419 93995 9600 45%
c o 22.11 24 115 0 39 14316 16 160124 11476 1.8 10 6 2 7 29% 1420 93994 9600 45%
c d 22.59 24 115 0 39 14858 17 164916 15957 1.8 10 6 2 7 29% 1424 93992 9599 45%
c u 22.63 24 115 0 39 14858 17 164916 14309 1.8 10 6 2 7 29% 1428 93992 9599 45%
c v 22.68 24 115 0 39 14858 17 164916 11836 1.8 10 6 2 7 29% 1429 93992 9599 45%
c w 22.72 24 115 0 39 14858 17 164916 11681 1.8 10 6 2 7 29% 1429 93992 9599 45%
c = 23.14 24 115 0 39 14858 17 164916 11681 1.8 10 6 2 7 29% 2025 93813 9301 44%
c d 23.14 24 115 0 39 14858 17 164916 11517 1.8 10 6 2 7 29% 1411 93813 9301 44%
c t 23.15 24 115 0 39 14858 17 164916 11517 1.8 10 6 2 7 29% 1297 93813 9301 44%
c f 23.24 24 115 0 39 14858 17 164916 11517 1.8 10 6 2 7 29% 1313 93451 9309 44%
c u 23.30 24 115 0 39 14858 17 164916 11294 1.8 10 6 2 7 29% 1325 93451 9309 44%
c v 23.34 24 115 0 39 14858 17 164916 10882 1.8 10 6 2 7 29% 1325 93451 9309 44%
c w 23.38 24 115 0 39 14858 17 164916 10719 1.8 10 6 2 7 29% 1325 93451 9309 44%
c
c  seconds   switched      rate          size/glue tier1    binary        remaining
c         MB   reductions    conflicts         size  tier2     irredundant
c           level   restarts        redundant    glue   trail        variables
c
c = 23.77 24 115 0 39 14858 17 164916 10719 1.8 10 6 2 7 29% 1433 93425 9255 44%
c d 23.78 24 115 0 39 14858 17 164916 10710 1.8 10 6 2 7 29% 1324 93425 9255 44%
c t 23.78 24 115 0 39 14858 17 164916 10710 1.8 10 6 2 7 29% 1299 93425 9255 44%
c f 23.87 24 115 0 39 14858 17 164916 10710 1.8 10 6 2 7 29% 1326 93155 9265 44%
c - 24.02 24 115 0 40 14998 17 166298 10174 1.7 10 6 2 7 29% 1326 93155 9265 44%
c - 24.63 24 115 0 41 15658 17 172622 13387 1.7 10 6 2 7 29% 1331 93155 9265 44%
c - 25.25 25 115 0 42 16425 17 179025 15875 1.7 10 6 2 7 29% 1339 93151 9265 44%
c - 25.84 25 115 0 43 17119 17 185505 17539 1.7 10 6 2 7 29% 1345 93142 9265 44%
c - 26.28 25 114 0 44 17628 17 192062 18914 1.7 10 6 2 7 28% 1354 93139 9265 44%
c - 26.87 25 114 0 45 18372 17 198695 20018 1.7 11 6 2 7 28% 1357 93136 9265 44%
c u 27.11 25 113 0 45 18622 17 200695 19822 1.7 11 6 2 7 28% 1361 93136 9265 44%
c v 27.19 25 113 0 45 18622 17 200695 16223 1.7 11 6 2 7 28% 1361 93136 9265 44%
c w 27.22 25 113 0 45 18622 17 200695 16149 1.7 11 6 2 7 28% 1361 93136 9265 44%
c x 27.27 25 113 0 45 18622 17 200695 16041 1.7 11 6 2 7 28% 1404 92564 9265 44%
c = 27.65 25 113 0 45 18622 17 200695 16041 1.7 11 6 2 7 28% 1434 92564 9250 44%
c d 27.66 25 113 0 45 18622 17 200695 16035 1.7 11 6 2 7 28% 1404 92564 9250 44%
c t 27.66 25 113 0 45 18622 17 200695 16035 1.7 11 6 2 7 28% 1359 92564 9250 44%
c u 27.80 25 113 0 45 18622 17 200695 15787 1.7 11 6 2 7 28% 1360 92564 9250 44%
c v 27.85 25 113 0 45 18622 17 200695 14913 1.7 11 6 2 7 28% 1360 92564 9250 44%
c w 27.87 25 113 0 45 18622 17 200695 14838 1.7 11 6 2 7 28% 1360 92564 9250 44%
c
c  seconds   switched      rate          size/glue tier1    binary        remaining
c         MB   reductions    conflicts         size  tier2     irredundant
c           level   restarts        redundant    glue   trail        variables
c
c - 28.69 25 113 0 46 19048 17 205403 15736 1.7 11 6 2 7 28% 1363 92564 9250 44%
c - 29.25 25 113 0 47 19644 17 212185 18399 1.7 11 6 2 7 28% 1369 92563 9250 44%
c - 29.85 25 112 0 48 20337 17 219043 20350 1.7 11 6 2 7 28% 1377 92563 9250 44%
c o 29.94 25 113 0 48 20442 17 220126 21353 1.7 11 6 2 7 28% 1379 92563 9250 44%
c - 30.42 25 112 0 49 20975 17 225971 21851 1.7 11 6 2 7 28% 1386 92558 9250 44%
c - 31.03 25 112 0 50 21800 17 232971 22956 1.7 11 6 2 7 28% 1391 92554 9250 44%
c - 31.52 25 111 0 51 22427 17 240043 24107 1.7 11 6 2 7 27% 1401 92550 9250 44%
c s 31.54 25 111 0 51 22432 17 240091 24152 1.7 11 6 2 7 27% 1411 90550 9250 44%
c e 31.69 25 111 0 51 22432 17 240091 24152 1.7 11 6 2 7 27% 1059 102672 8321 39%
c 2 31.69 25 111 0 51 22432 17 240091 24152 1.7 11 6 2 7 27% 1050 102672 8321 39%
c s 31.73 25 111 0 51 22432 17 240091 24152 1.7 11 6 2 7 27% 1058 99487 8321 39%
c e 31.78 25 111 0 51 22432 17 240091 24152 1.7 11 6 2 7 27% 1026 99884 8287 39%
c ! 31.78 25 111 0 51 22432 17 240091 24152 1.7 11 6 2 7 27% 1026 99884 8287 39%
c u 31.87 25 111 0 51 22441 17 240351 16734 1.7 11 6 2 7 27% 1036 99884 8287 39%
c v 31.92 25 111 0 51 22441 17 240351 13768 1.7 11 6 2 7 27% 1036 99884 8287 39%
c w 31.93 25 111 0 51 22441 17 240351 13757 1.7 11 6 2 7 27% 1036 99884 8287 39%
c x 32.04 25 111 0 51 22441 17 240351 13672 1.7 11 6 2 7 27% 1056 98061 8287 39%
c t 32.05 25 111 0 51 22441 17 240351 13672 1.7 11 6 2 7 27% 1038 98061 8287 39%
c f 32.14 25 111 0 51 22441 17 240351 13672 1.7 11 6 2 7 27% 1062 97659 8298 39%
c u 32.19 25 111 0 51 22441 17 240351 13435 1.7 11 6 2 7 27% 1063 97659 8298 39%
c
c  seconds   switched      rate          size/glue tier1    binary        remaining
c         MB   reductions    conflicts         size  tier2     irredundant
c           level   restarts        redundant    glue   trail        variables
c
c v 32.23 25 111 0 51 22441 17 240351 13060 1.7 11 6 2 7 27% 1063 97659 8298 39%
c w 32.23 25 111 0 51 22441 17 240351 13051 1.7 11 6 2 7 27% 1063 97659 8298 39%
c x 32.35 25 111 0 51 22441 17 240351 12990 1.7 11 6 2 7 27% 1064 97415 8298 39%
c = 32.74 25 111 0 51 22441 17 240351 12990 1.7 11 6 2 7 27% 1086 97400 8287 39%
c d 32.75 25 111 0 51 22441 17 240351 12973 1.7 11 6 2 7 27% 1063 97400 8287 39%
c t 32.75 25 111 0 51 22441 17 240351 12973 1.7 11 6 2 7 27% 1062 97400 8287 39%
c f 32.85 25 111 0 51 22441 17 240351 12973 1.7 11 6 2 7 27% 1084 97041 8298 39%
c - 33.41 25 112 0 52 23104 17 247184 16004 1.7 11 6 2 7 28% 1088 97033 8298 39%
c - 34.00 25 112 0 53 23820 17 254397 19056 1.7 11 6 2 7 28% 1090 97029 8298 39%
c - 34.56 25 113 0 54 24494 17 261680 20803 1.7 11 6 2 7 28% 1094 97022 8298 39%
c - 35.12 25 112 0 55 25191 17 269028 22148 1.7 11 7 2 7 28% 1099 97014 8298 39%
c - 35.79 25 112 0 56 25988 17 276444 23404 1.6 11 7 2 7 28% 1105 97009 8298 39%
c - 36.45 25 112 0 57 26817 17 283928 24511 1.6 11 7 2 7 28% 1110 97006 8298 39%
c d 36.46 25 112 0 57 26820 17 283977 24541 1.6 11 7 2 7 28% 1108 96990 8297 39%
c u 36.51 25 112 0 57 26820 17 283977 22352 1.6 11 7 2 7 28% 1116 96990 8297 39%
c v 36.58 25 112 0 57 26820 17 283977 18178 1.6 11 7 2 7 28% 1116 96990 8297 39%
c w 36.59 25 112 0 57 26820 17 283977 18177 1.6 11 7 2 7 28% 1116 96990 8297 39%
c = 37.04 25 112 0 57 26820 17 283977 18177 1.6 11 7 2 7 28% 1138 96978 8286 39%
c d 37.04 25 112 0 57 26820 17 283977 18167 1.6 11 7 2 7 28% 1113 96978 8286 39%
c f 37.15 25 112 0 57 26820 17 283977 18167 1.6 11 7 2 7 28% 1174 96511 8307 39%
c
c  seconds   switched      rate          size/glue tier1    binary        remaining
c         MB   reductions    conflicts         size  tier2     irredundant
c           level   restarts        redundant    glue   trail        variables
c
c u 37.20 25 112 0 57 26820 17 283977 17919 1.6 11 7 2 7 28% 1179 96511 8307 39%
c v 37.24 25 112 0 57 26820 17 283977 17417 1.6 11 7 2 7 28% 1179 96511 8307 39%
c w 37.25 25 112 0 57 26820 17 283977 17417 1.6 11 7 2 7 28% 1179 96511 8307 39%
c x 37.38 25 112 0 57 26820 17 283977 17270 1.6 11 7 2 7 28% 1216 94420 8307 39%
c t 37.82 25 112 0 57 26820 17 283977 17270 1.6 11 7 2 7 28% 1193 94420 8307 39%
c o 38.30 25 113 0 57 27278 17 290132 22988 1.6 11 7 2 7 28% 1194 94418 8307 39%
c - 38.39 25 113 0 58 27383 17 291477 20045 1.6 11 7 2 7 28% 1195 94417 8307 39%
c - 38.97 25 113 0 59 28074 17 299093 22801 1.6 11 7 2 8 28% 1199 94411 8307 39%
c - 39.53 25 114 0 60 28678 17 306775 24482 1.6 11 7 2 8 29% 1204 94405 8307 39%
c - 39.94 25 113 0 61 29186 17 314520 25742 1.6 11 7 2 8 28% 1212 94397 8307 39%
c i 40.45 25 113 0 61 29795 16 321865 32591 1.6 11 7 2 8 28% 1233 94392 8305 39%
c - 40.46 25 112 0 62 29798 16 322331 26854 1.6 11 7 2 8 28% 1231 94392 8305 39%
c - 41.01 25 112 0 63 30464 16 330205 27904 1.6 11 7 2 8 28% 1237 94389 8305 39%
c u 41.18 25 112 0 63 30570 16 331632 26870 1.6 11 7 2 8 28% 1248 94378 8305 39%
c v 41.24 25 112 0 63 30570 16 331632 24189 1.6 11 7 2 8 28% 1248 94378 8305 39%
c w 41.25 25 112 0 63 30570 16 331632 24153 1.6 11 7 2 8 28% 1248 94378 8305 39%
c x 41.32 25 112 0 63 30570 16 331632 24025 1.6 11 7 2 8 28% 1248 94375 8305 39%
c d 41.33 25 112 0 63 30570 16 331632 24024 1.6 11 7 2 8 28% 1246 94375 8304 39%
c t 41.33 25 112 0 63 30570 16 331632 24024 1.6 11 7 2 8 28% 1241 94375 8304 39%
c u 41.43 25 112 0 63 30570 16 331632 23503 1.6 11 7 2 8 28% 1243 94375 8304 39%
c
c  seconds   switched      rate          size/glue tier1    binary        remaining
c         MB   reductions    conflicts         size  tier2     irredundant
c           level   restarts        redundant    glue   trail        variables
c
c v 41.49 25 112 0 63 30570 16 331632 21261 1.6 11 7 2 8 28% 1246 94375 8304 39%
c w 41.50 25 112 0 63 30570 16 331632 21212 1.6 11 7 2 8 28% 1246 94375 8304 39%
c = 41.92 25 112 0 63 30570 16 331632 21212 1.6 11 7 2 8 28% 1339 93829 8207 39%
c d 41.92 25 112 0 63 30570 16 331632 20965 1.6 11 7 2 8 28% 1257 93806 8207 39%
c d 41.93 25 112 0 63 30570 16 331632 20964 1.6 11 7 2 8 28% 1255 93806 8206 39%
c t 41.93 25 112 0 63 30570 16 331632 20964 1.6 11 7 2 8 28% 1219 93806 8206 39%
c i 42.27 25 113 0 63 30929 16 337274 26158 1.6 11 7 2 8 28% 1227 93787 8205 39%
c i 42.27 25 113 0 63 30929 16 337387 26231 1.6 11 7 2 8 28% 1234 93787 8204 39%
c i 42.27 25 113 0 63 30929 16 337388 26231 1.6 11 7 2 8 28% 1234 93787 8197 39%
c } 42.27 25 113 0 63 30929 16 337390 26231 1.6 11 7 2 8 28% 1234 93787 8174 39%
c 0 42.27 25 113 0 63 30929 16 337390 26231 1.6 11 7 2 8 28% 1234 93787 8174 39%
c
c ---- [ result ] ------------------------------------------------------------
c
s UNSATISFIABLE
c
c ---- [ profiling ] ---------------------------------------------------------
c
c          31.04   73.43 %  search
c          31.04   73.43 %  focused
c          10.99   26.00 %  simplify
c          10.19   24.12 %  probe
c           4.80   11.36 %  sweep
c           3.32    7.86 %  vivify
c           1.06    2.52 %  factor
c           0.91    2.15 %  eliminate
c           0.46    1.09 %  substitute
c           0.42    1.01 %  congruence
c           0.25    0.60 %  reduce
c           0.21    0.50 %  preprocess
c           0.17    0.39 %  subsume
c           0.10    0.23 %  fastel
c           0.08    0.18 %  transitive
c           0.04    0.10 %  backbone
c           0.01    0.04 %  lucky
c           0.01    0.03 %  parse
c =============================================
c          42.27  100.00 %  total
c
c ---- [ statistics ] --------------------------------------------------------
c
c chronological:                         5596                2 %  conflicts
c conflicts:                           337390             7981.60 per second
c congruent:                              298                1 %  variables
c decisions:                          5450831               16.16 per conflict
c eliminated:                           11815               56 %  variables
c factored:                               287                1 %  variables
c fast_eliminated:                       4845               41 %  eliminated
c fast_strengthened:                       25                0 %  per strengthened
c fast_subsumed:                            3                0 %  per subsumed
c iterations:                               8                0 %  variables
c propagations:                     191963105          4541253    per second
c reductions:                              63             5355    interval
c reordered:                                8            42174    interval
c restarts:                             30929               11    interval
c strengthened:                         10204                0 %  checks
c substituted:                           1320                6 %  variables
c subsumed:                             10818                0 %  checks
c switched:                                 0                0    interval
c vivified:                            103735               15 %  checks
c
c ---- [ glue usage ] --------------------------------------------------------
c
c focused glue 2   used 150580 clauses 31.11% accumulated 54.11% tier1
c focused glue 3   used  79961 clauses 16.52% accumulated 70.63%
c focused glue 4-6 used  79205 clauses 16.36% accumulated 86.99%
c focused glue 7   used  14390 clauses  2.97% accumulated 89.97%
c focused glue 8   used  11371 clauses  2.35% accumulated 92.32% tier2
c
c ---- [ resources ] ---------------------------------------------------------
c
c maximum-resident-set-size:         26583040 bytes         25 MB
c process-time:                            42s              42.27 seconds
c
c ---- [ shutting down ] -----------------------------------------------------
c
c exit 20
